2385.0,2494.0,2594.0,2620.0,2437.0,2468.0,2444.0,2585.0,2577.0,2686.0,2585.0,2785.0,2985.0,2585.0,3105.0,2794.0,2386.0,2586.0,2601.0,2403.0,2385.0,2453.0,2378.0,2443.0,2581.0,2478.0,2468.0,2577.0,2378.0,2382.0,2582.0,2372.0,2329.0,2429.0,2529.0,2603.0,2501.0,2337.0,2537.0,2541.0,2438.0,2435.0,2459.0,2339.0,2539.0,2739.0,2429.0,2629.0,2629.0,2347.0,2390.0,2529.0,2357.0,2341.0,2372.0,2329.0,2529.0,2513.0,2359.0,2370.0,2438.0,2420.0,2411.0,2611.0,2311.0,2400.0,2311.0